NAME : eil76.747615.tour
COMMENT : Cost = 0_747615
COMMENT : Found by LKH [Keld Helsgaun] Thu Nov 16 19:20:37 2017
TYPE : TOUR
DIMENSION : 82
TOUR_SECTION
1
43
42
64
41
56
23
63
80
16
3
44
32
9
39
31
55
25
50
18
24
49
81
22
61
69
71
60
70
20
37
36
47
21
82
73
2
30
48
74
28
62
78
33
51
17
26
76
75
6
77
40
12
72
58
10
38
65
66
11
59
14
53
35
7
67
79
68
4
27
52
34
46
8
19
54
13
57
15
5
29
45
-1
EOF
